
Gurobi 8.0.0 (mac64, Python) logging started Mon Aug  2 20:11:06 2021


Gurobi 8.0.0 (mac64, Python) logging started Mon Aug  2 20:12:22 2021


Gurobi 8.0.0 (mac64, Python) logging started Mon Sep 13 16:09:07 2021


Gurobi 8.0.0 (mac64, Python) logging started Mon Sep 13 16:17:45 2021

Academic license - for non-commercial use only
Freed default Gurobi environment

Gurobi 8.0.0 (mac64, Python) logging started Mon Sep 13 16:19:09 2021

Academic license - for non-commercial use only
Freed default Gurobi environment

Gurobi 8.0.0 (mac64, Python) logging started Mon Sep 13 16:20:12 2021

Academic license - for non-commercial use only
Freed default Gurobi environment

Gurobi 8.0.0 (mac64, Python) logging started Mon Sep 13 16:25:42 2021

Academic license - for non-commercial use only
Freed default Gurobi environment

Gurobi 8.0.0 (mac64, Python) logging started Mon Sep 13 16:33:04 2021

Academic license - for non-commercial use only
Freed default Gurobi environment

Gurobi 8.0.0 (mac64, Python) logging started Mon Sep 13 16:35:58 2021

Academic license - for non-commercial use only
Freed default Gurobi environment

Gurobi 8.0.0 (mac64, Python) logging started Mon Sep 13 16:36:51 2021

Academic license - for non-commercial use only
Freed default Gurobi environment

Gurobi 8.0.0 (mac64, Python) logging started Mon Sep 13 16:53:06 2021

Academic license - for non-commercial use only
Freed default Gurobi environment

Gurobi 8.0.0 (mac64, Python) logging started Mon Sep 13 17:01:10 2021

Academic license - for non-commercial use only
Freed default Gurobi environment

Gurobi 8.0.0 (mac64, Python) logging started Mon Sep 13 17:11:58 2021

Academic license - for non-commercial use only
Freed default Gurobi environment

Gurobi 8.0.0 (mac64, Python) logging started Mon Sep 13 17:13:13 2021

Academic license - for non-commercial use only
Freed default Gurobi environment

Gurobi 8.0.0 (mac64, Python) logging started Mon Sep 13 17:13:26 2021

Academic license - for non-commercial use only
Freed default Gurobi environment

Gurobi 8.0.0 (mac64, Python) logging started Mon Sep 13 17:21:48 2021

Academic license - for non-commercial use only
Freed default Gurobi environment

Gurobi 8.0.0 (mac64, Python) logging started Mon Sep 13 17:27:03 2021

Academic license - for non-commercial use only
Freed default Gurobi environment

Gurobi 8.0.0 (mac64, Python) logging started Mon Sep 13 17:29:22 2021

Academic license - for non-commercial use only
Freed default Gurobi environment

Gurobi 8.0.0 (mac64, Python) logging started Mon Sep 13 17:30:01 2021

Academic license - for non-commercial use only
Freed default Gurobi environment

Gurobi 8.0.0 (mac64, Python) logging started Mon Sep 13 17:30:59 2021

Academic license - for non-commercial use only
Freed default Gurobi environment

Gurobi 8.0.0 (mac64, Python) logging started Mon Sep 13 17:31:28 2021

Academic license - for non-commercial use only
Freed default Gurobi environment

Gurobi 8.0.0 (mac64, Python) logging started Mon Sep 13 17:33:23 2021

Academic license - for non-commercial use only
Freed default Gurobi environment

Gurobi 8.0.0 (mac64, Python) logging started Mon Sep 13 17:34:11 2021

Academic license - for non-commercial use only
Freed default Gurobi environment

Gurobi 8.0.0 (mac64, Python) logging started Mon Sep 13 17:34:37 2021

Academic license - for non-commercial use only
Freed default Gurobi environment

Gurobi 8.0.0 (mac64, Python) logging started Mon Sep 13 17:35:00 2021

Academic license - for non-commercial use only
Freed default Gurobi environment

Gurobi 8.0.0 (mac64, Python) logging started Mon Sep 13 17:36:27 2021

Academic license - for non-commercial use only
Freed default Gurobi environment

Gurobi 8.0.0 (mac64, Python) logging started Mon Sep 13 17:36:44 2021

Academic license - for non-commercial use only
Freed default Gurobi environment

Gurobi 8.0.0 (mac64, Python) logging started Mon Sep 13 17:41:53 2021

Academic license - for non-commercial use only
Freed default Gurobi environment

Gurobi 8.0.0 (mac64, Python) logging started Mon Sep 13 17:44:47 2021

Academic license - for non-commercial use only
Freed default Gurobi environment

Gurobi 8.0.0 (mac64, Python) logging started Mon Sep 13 17:53:41 2021

Academic license - for non-commercial use only
Freed default Gurobi environment

Gurobi 8.0.0 (mac64, Python) logging started Mon Sep 13 17:54:34 2021

Academic license - for non-commercial use only
Freed default Gurobi environment

Gurobi 8.0.0 (mac64, Python) logging started Mon Sep 13 17:55:44 2021

Academic license - for non-commercial use only
Freed default Gurobi environment

Gurobi 8.0.0 (mac64, Python) logging started Mon Sep 13 18:03:08 2021

Academic license - for non-commercial use only
Freed default Gurobi environment

Gurobi 8.0.0 (mac64, Python) logging started Mon Sep 13 18:15:44 2021

Academic license - for non-commercial use only
Freed default Gurobi environment
